(set-info :smt-lib-version 2.6)
(set-logic QF_UFLRA)
(set-info :source |
MathSat group

|)
(set-info :category "random")
(set-info :status sat)
(declare-fun x0 () Real)
(declare-fun x1 () Real)
(declare-fun x2 () Real)
(declare-fun x3 () Real)
(declare-fun x4 () Real)
(declare-fun x5 () Real)
(declare-fun x6 () Real)
(declare-fun x7 () Real)
(declare-fun x8 () Real)
(declare-fun x9 () Real)
(declare-fun x10 () Real)
(declare-fun x11 () Real)
(declare-fun x12 () Real)
(declare-fun x13 () Real)
(declare-fun x14 () Real)
(declare-fun x15 () Real)
(declare-fun x16 () Real)
(declare-fun x17 () Real)
(declare-fun x18 () Real)
(declare-fun x19 () Real)
(declare-fun x20 () Real)
(declare-fun x21 () Real)
(declare-fun x22 () Real)
(declare-fun x23 () Real)
(declare-fun x24 () Real)
(declare-fun x25 () Real)
(declare-fun x26 () Real)
(declare-fun x27 () Real)
(declare-fun x28 () Real)
(declare-fun x29 () Real)
(declare-fun x30 () Real)
(declare-fun x31 () Real)
(declare-fun x32 () Real)
(declare-fun x33 () Real)
(declare-fun x34 () Real)
(declare-fun x35 () Real)
(declare-fun x36 () Real)
(declare-fun x37 () Real)
(declare-fun x38 () Real)
(declare-fun x39 () Real)
(declare-fun x40 () Real)
(declare-fun x41 () Real)
(declare-fun x42 () Real)
(declare-fun x43 () Real)
(declare-fun x44 () Real)
(declare-fun x45 () Real)
(declare-fun x46 () Real)
(declare-fun x47 () Real)
(declare-fun x48 () Real)
(declare-fun x49 () Real)
(declare-fun f0_1 (Real) Real)
(declare-fun f0_2 (Real Real) Real)
(declare-fun f0_3 (Real Real Real) Real)
(declare-fun f0_4 (Real Real Real Real) Real)
(declare-fun P0 () Bool)
(declare-fun P1 () Bool)
(declare-fun P2 () Bool)
(declare-fun P3 () Bool)
(declare-fun P4 () Bool)
(declare-fun P5 () Bool)
(declare-fun P6 () Bool)
(declare-fun P7 () Bool)
(declare-fun P8 () Bool)
(declare-fun P9 () Bool)
(declare-fun P10 () Bool)
(declare-fun P11 () Bool)
(declare-fun P12 () Bool)
(declare-fun P13 () Bool)
(declare-fun P14 () Bool)
(declare-fun P15 () Bool)
(declare-fun P16 () Bool)
(declare-fun P17 () Bool)
(declare-fun P18 () Bool)
(declare-fun P19 () Bool)
(declare-fun P20 () Bool)
(declare-fun P21 () Bool)
(declare-fun P22 () Bool)
(declare-fun P23 () Bool)
(declare-fun P24 () Bool)
(declare-fun P25 () Bool)
(declare-fun P26 () Bool)
(declare-fun P27 () Bool)
(declare-fun P28 () Bool)
(declare-fun P29 () Bool)
(declare-fun P30 () Bool)
(declare-fun P31 () Bool)
(declare-fun P32 () Bool)
(declare-fun P33 () Bool)
(declare-fun P34 () Bool)
(declare-fun P35 () Bool)
(declare-fun P36 () Bool)
(declare-fun P37 () Bool)
(declare-fun P38 () Bool)
(declare-fun P39 () Bool)
(declare-fun P40 () Bool)
(declare-fun P41 () Bool)
(declare-fun P42 () Bool)
(declare-fun P43 () Bool)
(declare-fun P44 () Bool)
(declare-fun P45 () Bool)
(declare-fun P46 () Bool)
(declare-fun P47 () Bool)
(declare-fun P48 () Bool)
(declare-fun P49 () Bool)
(assert (let ((?v_44 (* 23 x42)) (?v_58 (* 27 x22)) (?v_83 (* 9 x10)) (?v_8 (* 4 x49)) (?v_17 (* 2 x24)) (?v_41 (< (- (- (* 11 x21) (* 16 x8)) (* 9 x18)) 27)) (?v_176 (<= (- (- (* 10 x47) (* 14 x21)) (* 8 x14)) 20)) (?v_7 (distinct x5 x24)) (?v_95 (f0_1 x38))) (let ((?v_167 (= x37 ?v_95)) (?v_47 (= x32 x30)) (?v_230 (distinct x48 (f0_1 x43))) (?v_143 (= (f0_1 x14) x8)) (?v_63 (f0_1 x4))) (let ((?v_72 (distinct x1 ?v_63)) (?v_105 (distinct ?v_95 (f0_2 x42 x43))) (?v_120 (distinct (f0_2 x4 x24) x45)) (?v_115 (f0_1 x16))) (let ((?v_159 (= (f0_1 x11) ?v_115)) (?v_103 (= (f0_2 x24 x25) (f0_2 x14 x10))) (?v_197 (distinct (f0_1 x30) (f0_2 x0 x7))) (?v_88 (= ?v_115 (f0_2 x4 x2))) (?v_170 (= x24 (f0_2 x13 x36))) (?v_22 (f0_1 x5))) (let ((?v_104 (distinct (f0_1 x29) ?v_22)) (?v_28 (= ?v_22 (f0_2 x28 x42))) (?v_40 (f0_1 x0))) (let ((?v_4 (= ?v_40 (f0_1 x12))) (?v_150 (= (f0_1 x7) x14)) (?v_52 (= x27 x5)) (?v_84 (= (f0_2 x24 x40) (f0_2 x49 x48))) (?v_10 (= (f0_2 x32 x36) (f0_2 x38 x10))) (?v_119 (= (f0_2 x9 x42) (f0_2 x46 x47))) (?v_186 (= (f0_2 x36 x3) x38)) (?v_191 (= (f0_1 x20) x25)) (?v_114 (= x48 (f0_1 x25))) (?v_0 (distinct x27 x1)) (?v_71 (= ?v_40 (f0_2 x46 x28))) (?v_13 (f0_1 x10))) (let ((?v_86 (= ?v_13 ?v_63)) (?v_128 (= x9 x16)) (?v_74 (= x23 (f0_2 x25 x32))) (?v_174 (= (f0_2 x29 x21) (f0_2 x26 x2))) (?v_110 (distinct ?v_13 (f0_1 x35))) (?v_56 (f0_1 x8))) (let ((?v_1 (= (f0_2 x16 x26) ?v_56)) (?v_70 (distinct ?v_13 (f0_2 x29 x45))) (?v_229 (distinct x4 (f0_2 x12 x13))) (?v_35 (f0_1 x23))) (let ((?v_132 (= ?v_35 (f0_2 x28 x43))) (?v_112 (distinct x21 (f0_2 x13 x14))) (?v_37 (distinct (f0_2 x26 x33) ?v_13)) (?v_6 (distinct ?v_63 (f0_2 x3 x1))) (?v_184 (= x26 (f0_1 x26))) (?v_61 (distinct (f0_2 x38 x9) ?v_35)) (?v_158 (distinct x27 (f0_2 x26 x35))) (?v_195 (= (f0_1 x1) ?v_56)) (?v_233 (distinct (f0_2 x38 x48) ?v_115)) (?v_48 (distinct (f0_2 x16 x46) (f0_2 x47 x6))) (?v_243 (distinct (f0_1 x49) x35)) (?v_29 (distinct x34 x4)) (?v_26 (distinct (f0_1 x46) x34)) (?v_76 (= ?v_35 (f0_1 x2))) (?v_109 (distinct (f0_2 x36 x24) x19)) (?v_153 (distinct (f0_1 x13) x31)) (?v_126 (not ?v_104)) (?v_168 (not P14)) (?v_46 (not ?v_4)) (?v_127 (not ?v_110)) (?v_133 (not P28)) (?v_14 (not P7)) (?v_2 (not P11)) (?v_148 (not ?v_10)) (?v_9 (not ?v_114)) (?v_81 (not P41)) (?v_43 (not P17)) (?v_101 (not ?v_0)) (?v_82 (not P33)) (?v_87 (not ?v_1)) (?v_39 (not P18)) (?v_164 (not P43)) (?v_212 (not ?v_7)) (?v_21 (not P26)) (?v_68 (not P4)) (?v_232 (not ?v_41)) (?v_19 (not ?v_186)) (?v_38 (not P9)) (?v_11 (not P22)) (?v_199 (not ?v_47))) (let ((?v_187 (not ?v_132)) (?v_98 (not ?v_28)) (?v_179 (not P27)) (?v_236 (not ?v_153)) (?v_165 (not P2)) (?v_42 (not P37)) (?v_31 (not P46)) (?v_49 (not ?v_158)) (?v_60 (not ?v_37)) (?v_245 (not P1)) (?v_73 (not ?v_184)) (?v_171 (not P16)) (?v_172 (not P25)) (?v_121 (not ?v_61)) (?v_123 (not P39)) (?v_201 (not P40)) (?v_193 (not ?v_195)) (?v_62 (not ?v_26)) (?v_117 (not P21)) (?v_59 (not P34)) (?v_228 (not ?v_86)) (?v_92 (not ?v_72)) (?v_136 (not ?v_70)) (?v_256 (not ?v_71)) (?v_75 (not ?v_103)) (?v_116 (not P3)) (?v_97 (not ?v_76)) (?v_224 (not P12)) (?v_157 (not P24)) (?v_139 (not P45)) (?v_185 (not ?v_84)) (?v_149 (not P19)) (?v_96 (not ?v_109)) (?v_146 (not ?v_88)) (?v_221 (not ?v_167)) (?v_106 (not P8)) (?v_241 (not ?v_191)) (?v_113 (not ?v_243)) (?v_163 (not P20)) (?v_162 (not ?v_159)) (?v_131 (not P48)) (?v_202 (not ?v_119)) (?v_154 (not P10)) (?v_156 (not P13)) (?v_210 (not ?v_128)) (?v_155 (not ?v_29)) (?v_140 (not P42)) (?v_152 (not ?v_52)) (?v_183 (not P36)) (?v_151 (not ?v_143)) (?v_209 (not P38)) (?v_207 (not ?v_229)) (?v_211 (not ?v_150)) (?v_182 (not P29)) (?v_234 (not P47)) (?v_175 (not P35)) (?v_247 (not ?v_6)) (?v_188 (not P32)) (?v_215 (not ?v_176)) (?v_180 (not ?v_174)) (?v_237 (not ?v_48)) (?v_194 (not P23)) (?v_204 (not ?v_105)) (?v_198 (not ?v_197)) (?v_205 (not P6)) (?v_219 (not P44)) (?v_231 (not P31)) (?v_240 (not P30)) (?v_220 (not ?v_120)) (?v_252 (not P5)) (?v_251 (not P15)) (?v_249 (not P0)) (?v_248 (not P49)) (?v_255 (not ?v_233)) (?v_51 (= (+ (* 23 x36) (* 12 x21) (* 13 x17)) 18)) (?v_169 (< (- (* 3 x10) (* 22 x29)) 0))) (let ((?v_141 (not ?v_169)) (?v_25 (< (- (- x37 ?v_83) (* 20 x4)) 0)) (?v_147 (< (+ x30 (* 12 x35) (* 16 x17)) 16)) (?v_77 (= (- (- (* 12 x16) x1) 0) 2)) (?v_122 (<= (- (* 4 x25) (* 7 x6)) 14))) (let ((?v_99 (not ?v_25)) (?v_177 (<= (- (- 0 (* 18 x14)) (* 11 x31)) 16))) (let ((?v_85 (not ?v_177)) (?v_244 (not ?v_77)) (?v_235 (< (- (- (* 22 x2) x19) (* 19 x3)) 7))) (let ((?v_125 (not ?v_235)) (?v_129 (not ?v_122)) (?v_242 (< (+ (- (* 2 x15) x23) (* 19 x24)) 5))) (let ((?v_250 (not ?v_242)) (?v_196 (not ?v_147)) (?v_223 (not ?v_51)) (?v_18 (<= (- (- (* 19 x26) ?v_8) (* 22 x32)) (- 8)))) (let ((?v_111 (not ?v_18)) (?v_5 (<= (- (+ (* (- 6) x0) (* 12 x39)) (* 23 x49)) (- 3))) (?v_45 (distinct (- (- (* (- 10) x1) (* 5 x38)) (* 8 x7)) (- 14)))) (let ((?v_64 (not ?v_45)) (?v_213 (distinct (+ (* (- 22) x43) (* 17 x31)) 11))) (let ((?v_12 (not ?v_213)) (?v_91 (= (- (- (* (- 18) x49) 0) (* 17 x34)) (- 2)))) (let ((?v_178 (not ?v_91)) (?v_94 (<= (- (+ (* (- 21) x18) (* 19 x9)) (* 11 x5)) (- 5)))) (let ((?v_3 (not ?v_94)) (?v_130 (<= (- (- (* (- 6) x19) 0) x2) 19))) (let ((?v_32 (not ?v_130)) (?v_93 (< (+ (* (- 8) x44) (* 17 x4) (* 12 x9)) (- 23)))) (let ((?v_100 (not ?v_93)) (?v_24 (= (+ (- (* 13 x47) (* 9 x14)) x29) (- 17))) (?v_145 (= (- (- (* (- 1) x39) (* 26 x27)) (* 3 x7)) 21)) (?v_225 (<= (- (+ (* (- 10) x45) (* 10 x40)) ?v_58) (- 14)))) (let ((?v_254 (not ?v_225)) (?v_54 (< (- (+ (* 20 x44) (* 23 x10)) (* 2 x3)) (- 8))) (?v_20 (< (- (+ (* 25 x15) (* 10 x41)) (* 4 x43)) (- 5)))) (let ((?v_33 (not ?v_20)) (?v_36 (< (+ (- (* (- 27) x26) (* 13 x41)) (* 25 x31)) (- 9))) (?v_79 (<= (- (- x41 (* 27 x16)) (* 14 x18)) (- 26)))) (let ((?v_124 (not ?v_79)) (?v_218 (distinct (- (* 2 x45) 0) (- 8)))) (let ((?v_135 (not ?v_218)) (?v_23 (<= (- (- (* 26 x31) ?v_17) (* 21 x46)) (- 10)))) (let ((?v_203 (not ?v_23)) (?v_89 (< (- (- (* (- 23) x1) (* 3 x48)) (* 19 x38)) (- 11))) (?v_55 (<= (- (- (* 9 x25) (* 21 x49)) (* 10 x9)) (- 27)))) (let ((?v_16 (not ?v_55)) (?v_15 (<= (+ (* (- 12) x4) ?v_44 (* 16 x47)) 17))) (let ((?v_67 (not ?v_15)) (?v_66 (< (+ (* (- 25) x8) ?v_8 (* 14 x37)) 29)) (?v_30 (distinct (+ (* (- 7) x49) (* 8 x49) (* 23 x6)) 4))) (let ((?v_208 (not ?v_30)) (?v_222 (distinct (+ (- (* (- 6) x2) (* 11 x27)) (* 5 x12)) 27))) (let ((?v_144 (not ?v_222)) (?v_57 (<= (+ (- (* 20 x37) (* 23 x25)) (* 18 x38)) (- 28))) (?v_27 (<= (+ (* 7 x1) (* 4 x38) (* 6 x27)) (- 12)))) (let ((?v_238 (not ?v_27)) (?v_78 (distinct (- (- ?v_17 (* 8 x18)) (* 17 x27)) (- 12))) (?v_107 (< (+ (- (* 13 x2) (* 18 x42)) (* 25 x22)) (- 15))) (?v_69 (not ?v_24)) (?v_80 (<= (+ (- (* (- 18) x18) (* 25 x3)) (* 21 x25)) 5)) (?v_34 (* (- 26) x5))) (let ((?v_134 (< (+ ?v_34 x29) (- 15))) (?v_65 (<= (- (- (* (- 8) x18) (* 5 x31)) 0) (- 8))) (?v_216 (<= (- (+ ?v_34 (* 12 x13)) (* 27 x39)) (- 2))) (?v_160 (not ?v_36)) (?v_90 (<= (- (* 20 x19) (* 26 x12)) (- 22)))) (let ((?v_200 (not ?v_90)) (?v_53 (< (+ (- (* (- 24) x3) (* 6 x2)) ?v_44) (- 8))) (?v_50 (< (+ (- (* (- 13) x30) (* 8 x35)) (* 10 x1)) (- 2)))) (let ((?v_142 (not ?v_53)) (?v_118 (not ?v_54)) (?v_108 (distinct (+ (- 0 ?v_58) (* 9 x7)) (- 27))) (?v_206 (not ?v_57)) (?v_161 (<= (- (- (* (- 21) x28) (* 7 x10)) (* 22 x1)) (- 12))) (?v_138 (not ?v_80)) (?v_181 (< (+ (- (* 19 x8) (* 15 x26)) ?v_83) (- 23)))) (let ((?v_253 (not ?v_181)) (?v_173 (not ?v_5)) (?v_239 (not ?v_89)) (?v_102 (< (- (- (* (- 10) x16) (* 5 x36)) (* 8 x25)) (- 12))) (?v_190 (not ?v_107)) (?v_166 (not ?v_108))) (let ((?v_137 (not ?v_102)) (?v_189 (not ?v_145)) (?v_227 (< (- (+ (* 6 x47) (* 5 x44)) (* 22 x35)) (- 13)))) (let ((?v_192 (not ?v_227)) (?v_217 (not ?v_66)) (?v_246 (not ?v_134)) (?v_214 (not ?v_78)) (?v_226 (not ?v_216))) (and (and (and (and (and (and (and (and (and (and (and (and (and (and (and (and (and (and (and (and (and (and (and (and (and (and (and (and (and (and (and (and (and (and (and (and (and (and (and (and (and (and (and (and (and (and (and (and (and (and (and (and (and (and (and (and (and (and (and (and (and (and (and (and (and (and (and (and (and (and (and (and (and (and (and (and (and (and (and (and (and (and (and (and (and (and (and (and (and (and (and (and (and (and (and (and (and (and (and (and (and (and (and (and (and (and (and (and (and (and (and (and (and (and (and (and (and (and (and (and (and (and (and (and (and (and (and (and (and (and (and (and (and (and (and (and (and (and (and (and (and (and (and (and (and (and (and (and (and (and (and (and (and (and (and (and (and (and (and (and (and (and (and (and (and (and (and (and (and (and (and (and (and (and (and (and (and (and (and (and (and (and (and (and (and (and (and (and (and (and (and (and (and (and (and (and (and (and (and (and (and (and (and (and (and (and (and (and (and (and (and (and (and (and (and (and (and (and (and (and (and (and (and (and (and (and (and (and (and (and (and (and (and (and (and (and (and (and (and (and (and (and (and (and (and (and (and (and (and (and (and (and (and (and (and (and (and (and (and (and (and (and (and (and (and (and (and (and (and (and (and (and (and (and (and (and (and (and (and (and (and (and (and (and (and (and (and (and (and (and (and (and (and (and (and (and (and (and (and (and (and (and (and (and (and (and (and (and (and (and (and (and (and (and (and (and (and (and (and (and (and (and (and (and (and (and (and (and (and (and (and (and (and (and (and (and (and (and (and (and (and (and (and (and (and (and (and (and (and (and (and (and (and (and (and (and (and (and (and (and (and (and (and (and (and (and (and (and (and (and (and (and (and (and (and (and (and (and (and (and (and (and (and (and (and (and (and (and (and (and (and (and (and (and (and (and (and (and (and (and (and (and (and (and (and (and (and (and (and (and (and (and (and (and (and (and (and (and (and (and (and (and (and (and (and (and (and (and (and (and (and (and (and (and (and (and (and (and (and (and (and (and (and (and (and (and (and (and (and (and (and (and (and (and (and (and (and (and (and (and (and (and (and (and (and (and (and (and (and (and (and (and (and (and (and (and (and (and (and (and (and (and (and (and (and (and (and (and (and (and (and (and (and (and (and (and (and (and (and (and (and (and (and (and (and (and (and (and (and (and (and (and (and (and (and (and (and (and (and (and (and (and (and (and (and (and (and (and (and (and (and (and (and (and (and (and (and (and (and (and (and (and (and (and (and (and (and (and (and (and (and (and (and (and (and (and (and (and (and (and (and (and (and (and (and (and (and (and (and (and (and (and (and (and (and (and (and (and (and (and (and (and (and (and (and (and (and (and (and (and (and (and (and (and (and (and (and (and (and (or (or ?v_51 P6) ?v_111) (or (or ?v_141 P44) ?v_5)) (or (or ?v_126 ?v_64) ?v_12)) (or (or ?v_178 ?v_168) ?v_3)) (or (or P23 ?v_32) ?v_46)) (or (or ?v_0 ?v_1) ?v_127)) (or (or ?v_100 ?v_24) ?v_133)) (or (or P24 ?v_145) ?v_14)) (or (or P2 P34) ?v_2)) (or (or ?v_148 ?v_9) P45)) (or (or ?v_254 ?v_54) ?v_81)) (or (or ?v_43 ?v_33) P8)) (or (or ?v_36 ?v_6) ?v_101)) (or (or ?v_124 ?v_82) ?v_87)) (or (or ?v_2 ?v_3) ?v_105)) (or (or ?v_0 ?v_135) ?v_25)) (or (or ?v_39 ?v_164) ?v_203)) (or (or ?v_212 ?v_128) ?v_4)) (or (or ?v_5 P2) ?v_6)) (or (or ?v_21 ?v_7) ?v_89)) (or (or ?v_16 ?v_68) ?v_67)) (or (or ?v_66 ?v_232) P0)) (or (or ?v_1 ?v_19) ?v_48)) (or (or P28 ?v_38) ?v_9)) (or (or ?v_29 ?v_11) ?v_10)) (or (or ?v_199 ?v_11) P16)) (or (or ?v_12 ?v_208) ?v_144)) (or (or ?v_70 P20) ?v_187)) (or (or ?v_57 ?v_14) ?v_15)) (or (or ?v_16 ?v_238) ?v_26)) (or (or ?v_78 ?v_18) P1)) (or (or ?v_19 P31) ?v_20)) (or (or ?v_21 ?v_98) ?v_107)) (or (or ?v_23 ?v_15) ?v_69)) (or (or P49 ?v_179) ?v_25)) (or (or ?v_84 ?v_7) P18)) (or (or P13 ?v_236) ?v_26)) (or (or ?v_147 ?v_165) ?v_27)) (or (or ?v_28 ?v_42) P49)) (or (or ?v_31 ?v_29) ?v_80)) (or (or ?v_30 P28) ?v_49)) (or (or ?v_150 P34) P48)) (or (or ?v_31 ?v_32) ?v_134)) (or (or ?v_33 ?v_65) ?v_216)) (or (or ?v_10 ?v_28) P9)) (or (or ?v_60 ?v_76) ?v_160)) (or (or ?v_37 ?v_31) ?v_74)) (or (or ?v_245 ?v_38) ?v_39)) (or (or ?v_200 ?v_71) P14)) (or (or ?v_52 ?v_77) ?v_36)) (or (or ?v_41 ?v_42) ?v_73)) (or (or ?v_171 ?v_43) ?v_53)) (or (or ?v_45 ?v_46) ?v_50)) (or (or ?v_47 P31) ?v_19)) (or (or ?v_41 ?v_27) P19)) (or (or ?v_112 ?v_48) ?v_172)) (or (or P2 P12) ?v_49)) (or (or ?v_121 ?v_50) ?v_51)) (or (or ?v_123 ?v_143) ?v_122)) (or (or ?v_52 P14) ?v_201)) (or (or P19 ?v_142) P41)) (or (or ?v_118 ?v_48) ?v_55)) (or (or ?v_193 ?v_62) ?v_20)) (or (or ?v_117 ?v_59) ?v_57)) (or (or ?v_108 P45) ?v_59)) (or (or ?v_60 ?v_61) ?v_62)) (or (or ?v_228 ?v_64) ?v_65)) (or (or P31 ?v_66) ?v_92)) (or (or ?v_67 ?v_68) ?v_69)) (or (or ?v_53 ?v_51) ?v_206)) (or (or ?v_136 ?v_256) ?v_72)) (or (or ?v_161 P10) ?v_73)) (or (or ?v_75 ?v_12) ?v_74)) (or (or ?v_116 P28) ?v_75)) (or (or ?v_97 ?v_77) ?v_78)) (or (or P40 ?v_88) ?v_224)) (or (or ?v_79 P4) ?v_176)) (or (or ?v_138 ?v_99) ?v_81)) (or (or P42 ?v_82) ?v_71)) (or (or ?v_157 P44) P35)) (or (or ?v_79 ?v_253) P9)) (or (or ?v_85 P3) ?v_139)) (or (or P7 ?v_185) P39)) (or (or ?v_65 ?v_74) ?v_173)) (or (or ?v_24 ?v_81) P12)) (or (or ?v_48 ?v_77) ?v_85)) (or (or ?v_62 ?v_79) ?v_86)) (or (or ?v_149 ?v_96) ?v_87)) (or (or ?v_146 ?v_89) ?v_90)) (or (or ?v_15 ?v_91) ?v_46)) (or (or ?v_239 ?v_92) ?v_93)) (or (or ?v_9 P2) ?v_2)) (or (or ?v_94 ?v_221) ?v_67)) (or (or ?v_75 ?v_16) P28)) (or (or ?v_89 ?v_96) ?v_244)) (or (or ?v_0 ?v_102) ?v_20)) (or (or ?v_82 ?v_97) ?v_98)) (or (or ?v_99 P21) ?v_100)) (or (or ?v_101 ?v_16) ?v_102)) (or (or P41 ?v_21) ?v_24)) (or (or ?v_96 ?v_91) ?v_61)) (or (or P27 ?v_103) ?v_76)) (or (or ?v_104 P12) P39)) (or (or ?v_36 ?v_72) ?v_106)) (or (or ?v_105 ?v_30) ?v_55)) (or (or ?v_106 ?v_15) ?v_241)) (or (or ?v_190 ?v_100) ?v_2)) (or (or ?v_5 ?v_166) ?v_120)) (or (or ?v_38 P34) ?v_90)) (or (or ?v_24 ?v_109) ?v_110)) (or (or ?v_60 P21) ?v_125)) (or (or ?v_111 ?v_112) ?v_113)) (or (or P45 ?v_163) ?v_113)) (or (or ?v_69 ?v_84) ?v_119)) (or (or ?v_45 P29) P9)) (or (or (not ?v_65) ?v_33) ?v_114)) (or (or ?v_162 ?v_52) P33)) (or (or ?v_104 ?v_31) ?v_97)) (or (or ?v_7 ?v_116) P11)) (or (or ?v_39 ?v_70) ?v_117)) (or (or ?v_131 ?v_110) P10)) (or (or P43 ?v_118) ?v_15)) (or (or ?v_7 ?v_91) ?v_202)) (or (or ?v_5 ?v_120) P32)) (or (or ?v_81 ?v_121) ?v_154)) (or (or ?v_72 ?v_129) ?v_123)) (or (or ?v_122 ?v_124) P35)) (or (or ?v_99 ?v_116) ?v_125)) (or (or ?v_170 ?v_156) ?v_126)) (or (or ?v_69 ?v_106) ?v_38)) (or (or ?v_127 ?v_47) ?v_210)) (or (or P37 P41) ?v_122)) (or (or P34 ?v_129) ?v_9)) (or (or ?v_250 ?v_107) ?v_130)) (or (or ?v_105 ?v_131) ?v_132)) (or (or ?v_113 ?v_5) ?v_137)) (or (or ?v_133 ?v_134) P29)) (or (or ?v_135 ?v_130) ?v_43)) (or (or ?v_45 ?v_136) ?v_155)) (or (or ?v_137 ?v_138) ?v_140)) (or (or ?v_139 ?v_132) ?v_140)) (or (or ?v_74 ?v_125) P21)) (or (or ?v_233 P47) ?v_131)) (or (or ?v_141 P46) ?v_7)) (or (or P10 ?v_152) ?v_106)) (or (or ?v_142 ?v_183) ?v_99)) (or (or ?v_15 ?v_93) ?v_151)) (or (or ?v_23 P29) P20)) (or (or ?v_26 ?v_103) ?v_144)) (or (or ?v_209 P33) ?v_2)) (or (or ?v_189 ?v_43) ?v_134)) (or (or ?v_134 ?v_146) ?v_1)) (or (or ?v_101 ?v_77) ?v_98)) (or (or P2 ?v_5) ?v_128)) (or (or ?v_75 ?v_88) ?v_207)) (or (or ?v_196 ?v_73) P2)) (or (or P15 ?v_31) ?v_148)) (or (or ?v_27 ?v_149) ?v_120)) (or (or ?v_211 ?v_131) ?v_135)) (or (or ?v_151 ?v_64) ?v_113)) (or (or ?v_182 ?v_152) P44)) (or (or ?v_121 P13) ?v_53)) (or (or ?v_118 ?v_37) ?v_135)) (or (or ?v_153 ?v_39) ?v_154)) (or (or ?v_129 P37) P30)) (or (or ?v_66 ?v_3) P29)) (or (or ?v_108 P2) ?v_116)) (or (or ?v_155 P18) ?v_156)) (or (or ?v_15 P33) ?v_157)) (or (or ?v_234 ?v_104) ?v_158)) (or (or ?v_159 ?v_160) P18)) (or (or ?v_54 ?v_161) ?v_37)) (or (or ?v_159 ?v_97) ?v_36)) (or (or P43 ?v_175) ?v_39)) (or (or ?v_162 ?v_160) ?v_163)) (or (or P36 ?v_164) ?v_165)) (or (or ?v_166 ?v_174) P20)) (or (or ?v_62 ?v_12) ?v_30)) (or (or ?v_25 ?v_167) ?v_112)) (or (or P8 ?v_142) ?v_168)) (or (or ?v_169 ?v_247) ?v_155)) (or (or ?v_50 ?v_170) ?v_81)) (or (or ?v_188 ?v_171) ?v_49)) (or (or ?v_172 P36) ?v_173)) (or (or ?v_157 ?v_174) ?v_114)) (or (or ?v_96 ?v_175) ?v_20)) (or (or P47 P5) P21)) (or (or ?v_215 ?v_166) ?v_177)) (or (or ?v_178 ?v_84) P22)) (or (or ?v_168 ?v_6) ?v_41)) (or (or ?v_59 ?v_179) ?v_180)) (or (or ?v_79 ?v_180) ?v_96)) (or (or ?v_49 ?v_81) P34)) (or (or ?v_110 ?v_111) P46)) (or (or P0 ?v_47) ?v_3)) (or (or P8 ?v_181) ?v_78)) (or (or P18 ?v_163) ?v_135)) (or (or ?v_0 ?v_192) ?v_15)) (or (or ?v_16 P5) ?v_97)) (or (or ?v_65 ?v_133) ?v_217)) (or (or ?v_114 P10) ?v_180)) (or (or ?v_53 ?v_182) (not ?v_170))) (or (or ?v_21 P5) ?v_246)) (or (or ?v_4 ?v_49) ?v_183)) (or (or ?v_184 ?v_106) P39)) (or (or P23 ?v_146) ?v_26)) (or (or ?v_110 ?v_174) ?v_185)) (or (or ?v_237 ?v_21) ?v_186)) (or (or ?v_187 ?v_188) P9)) (or (or ?v_189 ?v_149) ?v_33)) (or (or ?v_190 ?v_139) ?v_214)) (or (or P16 ?v_79) ?v_151)) (or (or ?v_133 ?v_69) ?v_191)) (or (or ?v_102 ?v_192) ?v_64)) (or (or ?v_197 ?v_193) ?v_59)) (or (or ?v_72 ?v_107) ?v_156)) (or (or ?v_194 ?v_86) ?v_18)) (or (or ?v_77 ?v_133) ?v_177)) (or (or (not ?v_230) ?v_174) ?v_122)) (or (or ?v_101 ?v_150) ?v_194)) (or (or ?v_96 ?v_161) P14)) (or (or P0 ?v_181) ?v_195)) (or (or ?v_181 ?v_164) P24)) (or (or P12 ?v_61) P21)) (or (or ?v_5 ?v_19) ?v_102)) (or (or ?v_5 ?v_99) ?v_14)) (or (or ?v_2 P28) ?v_204)) (or (or ?v_196 ?v_140) ?v_72)) (or (or ?v_72 ?v_130) ?v_110)) (or (or ?v_156 P46) P36)) (or (or ?v_20 ?v_198) ?v_192)) (or (or ?v_179 ?v_198) ?v_165)) (or (or P18 ?v_182) ?v_51)) (or (or ?v_4 P21) P20)) (or (or ?v_109 ?v_199) ?v_193)) (or (or ?v_47 ?v_200) P4)) (or (or ?v_28 ?v_152) ?v_111)) (or (or ?v_169 ?v_20) ?v_5)) (or (or ?v_172 ?v_76) ?v_105)) (or (or ?v_191 ?v_109) ?v_189)) (or (or P25 ?v_205) ?v_77)) (or (or ?v_219 P23) P25)) (or (or ?v_141 ?v_14) ?v_170)) (or (or ?v_12 ?v_158) ?v_113)) (or (or ?v_184 ?v_69) ?v_110)) (or (or ?v_159 ?v_110) ?v_14)) (or (or ?v_38 ?v_165) ?v_141)) (or (or ?v_201 ?v_202) ?v_231)) (or (or ?v_60 ?v_125) ?v_5)) (or (or ?v_223 P25) ?v_178)) (or (or ?v_121 ?v_73) ?v_120)) (or (or ?v_132 ?v_23) P41)) (or (or ?v_104 P10) ?v_37)) (or (or P39 ?v_159) ?v_203)) (or (or ?v_164 ?v_162) ?v_130)) (or (or P18 ?v_204) ?v_55)) (or (or ?v_175 ?v_127) ?v_125)) (or (or ?v_194 ?v_74) ?v_240)) (or (or ?v_94 ?v_9) ?v_62)) (or (or ?v_189 P40) P25)) (or (or ?v_205 ?v_170) ?v_94)) (or (or P4 ?v_12) ?v_206)) (or (or ?v_207 P15) ?v_208)) (or (or P30 ?v_167) ?v_173)) (or (or ?v_220 ?v_47) ?v_128)) (or (or ?v_86 ?v_50) ?v_82)) (or (or ?v_73 ?v_178) P29)) (or (or ?v_10 ?v_143) ?v_209)) (or (or P9 ?v_114) P36)) (or (or ?v_50 ?v_18) ?v_210)) (or (or ?v_93 ?v_74) ?v_81)) (or (or ?v_18 ?v_54) ?v_114)) (or (or ?v_59 ?v_199) ?v_30)) (or (or ?v_180 ?v_168) ?v_252)) (or (or ?v_11 ?v_66) ?v_147)) (or (or ?v_211 ?v_212) ?v_104)) (or (or P33 ?v_77) ?v_190)) (or (or ?v_108 ?v_211) ?v_47)) (or (or ?v_213 ?v_170) ?v_51)) (or (or ?v_175 P42) ?v_214)) (or (or ?v_215 ?v_149) ?v_109)) (or (or ?v_15 P47) ?v_134)) (or (or ?v_226 ?v_167) ?v_65)) (or (or ?v_2 ?v_107) ?v_162)) (or (or ?v_97 ?v_0) ?v_175)) (or (or ?v_189 ?v_57) ?v_217)) (or (or ?v_150 ?v_159) ?v_12)) (or (or ?v_142 ?v_185) ?v_172)) (or (or ?v_12 ?v_196) ?v_2)) (or (or ?v_113 P34) P5)) (or (or ?v_218 ?v_94) ?v_219)) (or (or P44 ?v_200) ?v_146)) (or (or ?v_3 ?v_145) ?v_152)) (or (or P29 ?v_10) P2)) (or (or ?v_220 P43) P16)) (or (or ?v_53 P17) ?v_110)) (or (or ?v_211 ?v_2) ?v_182)) (or (or ?v_221 ?v_90) ?v_84)) (or (or P22 P30) P18)) (or (or ?v_94 ?v_118) ?v_116)) (or (or ?v_160 ?v_38) ?v_71)) (or (or ?v_118 ?v_137) ?v_198)) (or (or ?v_175 ?v_62) P12)) (or (or ?v_84 ?v_72) ?v_222)) (or (or ?v_94 ?v_168) ?v_223)) (or (or ?v_42 P13) ?v_177)) (or (or ?v_50 ?v_187) P22)) (or (or P3 ?v_97) ?v_224)) (or (or ?v_225 ?v_176) ?v_226)) (or (or ?v_55 P30) ?v_166)) (or (or ?v_227 ?v_96) ?v_59)) (or (or P43 ?v_85) ?v_166)) (or (or P28 ?v_134) ?v_205)) (or (or ?v_198 ?v_0) ?v_39)) (or (or ?v_228 ?v_173) ?v_7)) (or (or P31 ?v_227) ?v_131)) (or (or ?v_163 ?v_5) P2)) (or (or ?v_251 ?v_149) ?v_180)) (or (or ?v_180 P42) ?v_229)) (or (or ?v_198 ?v_179) ?v_161)) (or (or ?v_222 ?v_100) ?v_68)) (or (or ?v_140 ?v_3) ?v_74)) (or (or P6 ?v_188) ?v_229)) (or (or ?v_61 ?v_156) ?v_36)) (or (or ?v_15 ?v_77) ?v_119)) (or (or P20 ?v_140) ?v_230)) (or (or ?v_65 ?v_125) ?v_155)) (or (or P29 ?v_71) ?v_78)) (or (or ?v_158 ?v_118) ?v_72)) (or (or ?v_86 ?v_179) ?v_216)) (or (or ?v_185 P49) ?v_101)) (or (or ?v_231 ?v_67) ?v_104)) (or (or ?v_174 ?v_124) ?v_161)) (or (or ?v_70 ?v_144) ?v_134)) (or (or ?v_52 ?v_230) P46)) (or (or ?v_142 ?v_104) ?v_51)) (or (or ?v_128 ?v_169) ?v_32)) (or (or P11 P26) ?v_45)) (or (or ?v_98 ?v_132) ?v_46)) (or (or P48 ?v_24) ?v_170)) (or (or P22 ?v_16) P23)) (or (or P40 ?v_52) ?v_74)) (or (or ?v_86 ?v_215) ?v_199)) (or (or ?v_2 ?v_69) ?v_21)) (or (or ?v_1 ?v_72) ?v_197)) (or (or ?v_203 ?v_75) ?v_130)) (or (or ?v_203 ?v_171) ?v_118)) (or (or P19 ?v_99) ?v_148)) (or (or P21 ?v_150) ?v_167)) (or (or ?v_232 ?v_73) P4)) (or (or ?v_233 P12) P15)) (or (or ?v_234 ?v_85) ?v_163)) (or (or ?v_176 P39) ?v_97)) (or (or P47 ?v_150) ?v_131)) (or (or ?v_134 ?v_55) ?v_138)) (or (or ?v_79 P47) ?v_179)) (or (or ?v_142 ?v_79) ?v_122)) (or (or ?v_226 ?v_207) P2)) (or (or ?v_147 ?v_138) P39)) (or (or ?v_200 P32) ?v_54)) (or (or ?v_215 ?v_38) (not ?v_50))) (or (or ?v_166 ?v_38) ?v_235)) (or (or ?v_194 P49) ?v_112)) (or (or ?v_236 ?v_214) P39)) (or (or P9 ?v_42) ?v_85)) (or (or ?v_31 P35) P37)) (or (or ?v_15 ?v_175) ?v_219)) (or (or P41 ?v_237) ?v_140)) (or (or ?v_27 ?v_238) P38)) (or (or ?v_164 ?v_216) P49)) (or (or ?v_49 ?v_111) ?v_184)) (or (or ?v_166 ?v_226) P0)) (or (or ?v_225 ?v_234) (not ?v_112))) (or (or ?v_197 ?v_39) ?v_1)) (or (or ?v_117 P29) ?v_21)) (or (or ?v_151 ?v_220) ?v_11)) (or (or ?v_237 ?v_109) P1)) (or (or P47 ?v_11) P45)) (or (or ?v_138 ?v_146) ?v_239)) (or (or ?v_9 ?v_77) P20)) (or (or ?v_109 ?v_98) ?v_43)) (or (or ?v_120 ?v_222) ?v_221)) (or (or ?v_249 ?v_33) ?v_0)) (or (or ?v_94 ?v_240) ?v_47)) (or (or ?v_20 P7) P13)) (or (or ?v_215 ?v_234) P31)) (or (or ?v_203 P40) ?v_168)) (or (or ?v_132 ?v_18) ?v_41)) (or (or ?v_16 ?v_81) ?v_139)) (or (or ?v_73 ?v_71) ?v_241)) (or (or ?v_239 ?v_72) ?v_158)) (or (or ?v_45 ?v_201) ?v_242)) (or (or ?v_60 ?v_223) P24)) (or (or P30 P31) ?v_203)) (or (or ?v_67 ?v_207) ?v_38)) (or (or ?v_90 ?v_124) ?v_111)) (or (or P33 ?v_202) P10)) (or (or ?v_26 ?v_68) ?v_59)) (or (or ?v_147 ?v_243) ?v_200)) (or (or ?v_132 ?v_110) ?v_152)) (or (or ?v_54 ?v_12) ?v_38)) (or (or P27 P23) ?v_234)) (or (or ?v_55 ?v_204) P44)) (or (or ?v_98 ?v_94) ?v_241)) (or (or ?v_168 ?v_197) P19)) (or (or ?v_193 ?v_161) ?v_64)) (or (or ?v_129 ?v_228) ?v_143)) (or (or P28 ?v_67) ?v_217)) (or (or ?v_73 ?v_114) P37)) (or (or ?v_112 ?v_244) P13)) (or (or ?v_113 ?v_170) ?v_117)) (or (or ?v_233 ?v_219) ?v_78)) (or (or P24 ?v_195) ?v_231)) (or (or ?v_192 ?v_93) ?v_3)) (or (or ?v_69 ?v_217) ?v_121)) (or (or P36 ?v_47) P28)) (or (or ?v_245 ?v_71) P42)) (or (or ?v_110 ?v_108) ?v_207)) (or (or ?v_67 P23) ?v_180)) (or (or ?v_117 ?v_243) ?v_79)) (or (or P33 ?v_172) ?v_151)) (or (or ?v_113 P38) ?v_165)) (or (or ?v_242 ?v_60) ?v_92)) (or (or ?v_72 P6) ?v_217)) (or (or ?v_66 P24) ?v_31)) (or (or ?v_224 ?v_15) ?v_37)) (or (or ?v_16 P28) ?v_144)) (or (or ?v_190 ?v_215) ?v_226)) (or (or ?v_204 ?v_228) ?v_183)) (or (or ?v_138 ?v_168) P41)) (or (or ?v_208 ?v_154) ?v_25)) (or (or ?v_27 ?v_10) ?v_86)) (or (or ?v_53 ?v_82) ?v_16)) (or (or ?v_188 P6) ?v_172)) (or (or ?v_243 P26) P16)) (or (or ?v_132 ?v_246) ?v_93)) (or (or ?v_120 ?v_166) ?v_154)) (or (or ?v_64 ?v_142) ?v_59)) (or (or ?v_247 ?v_55) ?v_248)) (or (or ?v_25 ?v_225) ?v_84)) (or (or ?v_182 ?v_248) ?v_118)) (or (or ?v_76 ?v_45) P10)) (or (or ?v_131 ?v_153) ?v_145)) (or (or P0 ?v_114) P29)) (or (or ?v_84 ?v_41) ?v_245)) (or (or ?v_0 ?v_30) ?v_7)) (or (or P5 ?v_31) ?v_45)) (or (or ?v_62 ?v_29) ?v_168)) (or (or ?v_228 ?v_168) P35)) (or (or ?v_116 ?v_54) ?v_129)) (or (or P6 P29) ?v_112)) (or (or ?v_108 ?v_186) ?v_88)) (or (or ?v_209 P1) ?v_23)) (or (or ?v_87 ?v_69) ?v_66)) (or (or ?v_255 ?v_179) ?v_14)) (or (or ?v_85 ?v_41) ?v_223)) (or (or ?v_105 P9) P26)) (or (or ?v_19 ?v_26) ?v_150)) (or (or ?v_9 ?v_156) ?v_225)) (or (or ?v_237 P30) ?v_30)) (or (or ?v_123 ?v_23) ?v_122)) (or (or ?v_192 P22) P32)) (or (or ?v_128 P30) ?v_114)) (or (or ?v_93 P15) ?v_151)) (or (or ?v_26 ?v_184) ?v_42)) (or (or ?v_4 ?v_123) ?v_152)) (or (or ?v_133 ?v_248) ?v_4)) (or (or ?v_218 ?v_87) ?v_89)) (or (or P5 ?v_78) ?v_223)) (or (or ?v_93 ?v_131) P18)) (or (or ?v_249 ?v_1) ?v_131)) (or (or ?v_130 ?v_91) ?v_180)) (or (or ?v_244 ?v_79) ?v_102)) (or (or P8 ?v_1) ?v_182)) (or (or ?v_84 ?v_29) ?v_243)) (or (or ?v_12 P7) ?v_216)) (or (or ?v_104 ?v_3) ?v_210)) (or (or ?v_134 ?v_39) ?v_64)) (or (or ?v_101 ?v_217) P1)) (or (or ?v_4 ?v_147) ?v_64)) (or (or ?v_108 ?v_159) ?v_28)) (or (or ?v_194 ?v_133) ?v_250)) (or (or ?v_243 ?v_106) ?v_166)) (or (or ?v_143 ?v_66) ?v_26)) (or (or P9 ?v_140) ?v_149)) (or (or P38 ?v_68) ?v_216)) (or (or ?v_141 ?v_222) ?v_43)) (or (or ?v_140 ?v_194) P43)) (or (or ?v_88 ?v_139) ?v_181)) (or (or ?v_149 P34) P32)) (or (or ?v_100 ?v_92) ?v_215)) (or (or ?v_82 ?v_4) ?v_169)) (or (or ?v_251 ?v_189) ?v_210)) (or (or ?v_145 ?v_162) ?v_92)) (or (or ?v_16 P12) ?v_106)) (or (or ?v_218 ?v_135) P47)) (or (or ?v_12 ?v_189) ?v_9)) (or (or ?v_20 ?v_97) P41)) (or (or ?v_93 ?v_18) ?v_141)) (or (or ?v_90 ?v_138) ?v_185)) (or (or ?v_198 ?v_232) ?v_114)) (or (or ?v_252 ?v_228) ?v_206)) (or (or ?v_120 ?v_88) ?v_37)) (or (or (not ?v_161) ?v_132) ?v_135)) (or (or ?v_200 ?v_0) ?v_94)) (or (or ?v_248 ?v_236) ?v_143)) (or (or P12 ?v_182) ?v_66)) (or (or ?v_21 ?v_213) ?v_138)) (or (or ?v_76 ?v_238) ?v_53)) (or (or ?v_105 ?v_134) ?v_47)) (or (or ?v_217 ?v_183) ?v_158)) (or (or P19 ?v_32) ?v_201)) (or (or ?v_252 ?v_243) ?v_221)) (or (or ?v_84 ?v_244) ?v_147)) (or (or ?v_117 ?v_167) ?v_252)) (or (or ?v_146 ?v_16) ?v_59)) (or (or ?v_227 ?v_30) ?v_36)) (or (or ?v_167 ?v_11) ?v_119)) (or (or ?v_247 ?v_6) ?v_205)) (or (or ?v_237 ?v_81) ?v_114)) (or (or ?v_211 P2) P26)) (or (or ?v_136 ?v_219) ?v_98)) (or (or ?v_57 P37) ?v_216)) (or (or ?v_240 ?v_246) P7)) (or (or ?v_245 ?v_157) ?v_19)) (or (or ?v_122 ?v_77) ?v_137)) (or (or P0 ?v_233) ?v_46)) (or (or ?v_137 P16) ?v_0)) (or (or P17 ?v_67) ?v_76)) (or (or P41 ?v_156) ?v_110)) (or (or ?v_75 ?v_91) ?v_79)) (or (or ?v_193 ?v_16) P25)) (or (or ?v_145 P24) ?v_43)) (or (or ?v_89 ?v_253) ?v_126)) (or (or ?v_84 ?v_43) ?v_109)) (or (or ?v_9 ?v_76) ?v_87)) (or (or ?v_236 ?v_254) ?v_140)) (or (or ?v_125 ?v_25) P39)) (or (or ?v_110 ?v_117) ?v_194)) (or (or ?v_243 ?v_65) ?v_224)) (or (or ?v_155 P32) P38)) (or (or ?v_155 P36) ?v_107)) (or (or ?v_75 P45) P37)) (or (or ?v_133 ?v_114) P42)) (or (or ?v_227 ?v_2) ?v_233)) (or (or ?v_92 ?v_186) ?v_75)) (or (or ?v_248 ?v_78) ?v_220)) (or (or ?v_250 P7) ?v_72)) (or (or ?v_160 ?v_191) P9)) (or (or ?v_149 P36) ?v_111)) (or (or ?v_107 ?v_59) ?v_147)) (or (or ?v_75 ?v_252) ?v_62)) (or (or ?v_240 ?v_251) ?v_148)) (or (or ?v_126 ?v_20) ?v_222)) (or (or ?v_221 P41) ?v_179)) (or (or ?v_25 ?v_185) ?v_31)) (or (or ?v_122 P12) ?v_12)) (or (or ?v_156 ?v_222) ?v_149)) (or (or ?v_135 ?v_183) P45)) (or (or ?v_212 ?v_252) ?v_207)) (or (or ?v_39 ?v_37) ?v_25)) (or (or P11 ?v_16) ?v_31)) (or (or ?v_50 ?v_190) ?v_36)) (or (or P28 ?v_244) ?v_103)) (or (or ?v_100 ?v_5) ?v_109)) (or (or ?v_38 ?v_110) ?v_6)) (or (or ?v_121 ?v_53) ?v_105)) (or (or ?v_156 ?v_0) ?v_170)) (or (or ?v_248 ?v_141) P11)) (or (or ?v_59 P19) P31)) (or (or ?v_125 ?v_16) P48)) (or (or ?v_23 ?v_173) ?v_79)) (or (or ?v_175 ?v_165) P48)) (or (or ?v_241 ?v_250) ?v_214)) (or (or ?v_77 ?v_227) ?v_51)) (or (or P36 ?v_61) ?v_1)) (or (or ?v_156 ?v_158) ?v_64)) (or (or ?v_132 ?v_123) ?v_32)) (or (or P44 ?v_28) ?v_53)) (or (or ?v_188 P32) ?v_213)) (or (or ?v_26 ?v_224) ?v_244)) (or (or ?v_155 ?v_5) ?v_74)) (or (or ?v_255 P48) ?v_10)) (or (or ?v_60 ?v_160) ?v_193)) (or (or ?v_88 ?v_256) ?v_75)) (or (or ?v_106 ?v_7) ?v_221)) (or (or ?v_222 ?v_215) ?v_111)) (or (or ?v_239 ?v_111) ?v_170)) (or (or ?v_139 ?v_199) ?v_163)) (or (or ?v_246 ?v_7) ?v_42)) (or (or ?v_92 ?v_145) P18)) (or (or ?v_232 ?v_94) ?v_210)) (or (or ?v_138 P26) ?v_60)) (or (or ?v_47 P23) P43)) (or (or ?v_33 ?v_71) P22)) (or (or P8 ?v_62) ?v_79)) (or (or ?v_232 ?v_206) ?v_213)) (or (or ?v_234 ?v_28) ?v_177)) (or (or ?v_187 ?v_5) P14)) (or (or ?v_167 ?v_48) ?v_256)))))))))))))))))))))))))))))))))))))))))
(check-sat)
(exit)
